(declare-datatypes (T1 T2 T3 T4 T5)
 ((Recv (mk-recv (match T1) (ep T2) (var T3) (event T4) (nearestwait T5)))))
(declare-datatypes (T1 T2 T3 T4)
((Send (mk-send (match T1) (ep T2) (value T3) (event T4)))))

(define-fun HB ((a Int) (b Int)) Bool
  (if(< a b)
 true
 false))
(define-fun HB* ((a Int) (b Int)) Bool
  (if(= a (- b 1))
 true
 false))

(define-fun MATCH ((r (Recv Int Int Int Int Int)) (s (Send Int Int Int Int))) Bool
(if(and (= (ep r) (ep s)) (= (var r) (value s))
(HB* (event s) (event r)) (= (match r) (event s))
(= (match s) (event r)))
true
false
)
)

(declare-const T1_0 Int)
(declare-const T1_1 Int)
(declare-const T2_0 Int)
(declare-const T2_1 Int)
(declare-const T3_0 Int)
(declare-const T3_1 Int)
(declare-const T4_0 Int)
(declare-const T4_1 Int)
(declare-const T5_0 Int)
(declare-const T5_1 Int)
(declare-const T6_0 Int)
(declare-const T6_1 Int)
(declare-const T7_0 Int)
(declare-const T7_1 Int)
(declare-const T8_0 Int)
(declare-const T8_1 Int)
(declare-const T9_0 Int)
(declare-const T9_1 Int)
(declare-const T10_0 Int)
(declare-const T10_1 Int)
(declare-const T11_0 Int)
(declare-const T11_1 Int)
(declare-const T12_0 Int)
(declare-const T12_1 Int)
(declare-const T13_0 Int)
(declare-const T13_1 Int)
(declare-const T14_0 Int)
(declare-const T14_1 Int)
(declare-const T15_0 Int)
(declare-const T15_1 Int)
(declare-const T16_0 Int)
(declare-const T16_1 Int)
(declare-const T17_0 Int)
(declare-const T17_1 Int)
(declare-const T18_0 Int)
(declare-const T18_1 Int)
(declare-const T19_0 Int)
(declare-const T19_1 Int)
(declare-const T20_0 Int)
(declare-const T20_1 Int)
(declare-const T21_0 Int)
(declare-const T21_1 Int)
(declare-const T22_0 Int)
(declare-const T22_1 Int)
(declare-const T23_0 Int)
(declare-const T23_1 Int)
(declare-const T24_0 Int)
(declare-const T24_1 Int)
(declare-const T25_0 Int)
(declare-const T25_1 Int)
(declare-const T26_0 Int)
(declare-const T26_1 Int)
(declare-const T27_0 Int)
(declare-const T27_1 Int)
(declare-const T28_0 Int)
(declare-const T28_1 Int)
(declare-const T29_0 Int)
(declare-const T29_1 Int)
(declare-const T30_0 Int)
(declare-const T30_1 Int)
(declare-const T0_0 Int)
(declare-const buf_1 Int)
(declare-const T0_1 Int)
(declare-const T0_2 Int)
(declare-const buf_2 Int)
(declare-const T0_3 Int)
(declare-const T0_4 Int)
(declare-const buf_3 Int)
(declare-const T0_5 Int)
(declare-const T0_6 Int)
(declare-const buf_4 Int)
(declare-const T0_7 Int)
(declare-const T0_8 Int)
(declare-const buf_5 Int)
(declare-const T0_9 Int)
(declare-const T0_10 Int)
(declare-const buf_6 Int)
(declare-const T0_11 Int)
(declare-const T0_12 Int)
(declare-const buf_7 Int)
(declare-const T0_13 Int)
(declare-const T0_14 Int)
(declare-const buf_8 Int)
(declare-const T0_15 Int)
(declare-const T0_16 Int)
(declare-const buf_9 Int)
(declare-const T0_17 Int)
(declare-const T0_18 Int)
(declare-const buf_10 Int)
(declare-const T0_19 Int)
(declare-const T0_20 Int)
(declare-const buf_11 Int)
(declare-const T0_21 Int)
(declare-const T0_22 Int)
(declare-const buf_12 Int)
(declare-const T0_23 Int)
(declare-const T0_24 Int)
(declare-const buf_13 Int)
(declare-const T0_25 Int)
(declare-const T0_26 Int)
(declare-const buf_14 Int)
(declare-const T0_27 Int)
(declare-const T0_28 Int)
(declare-const buf_15 Int)
(declare-const T0_29 Int)
(declare-const T0_30 Int)
(declare-const buf_16 Int)
(declare-const T0_31 Int)
(declare-const T0_32 Int)
(declare-const buf_17 Int)
(declare-const T0_33 Int)
(declare-const T0_34 Int)
(declare-const buf_18 Int)
(declare-const T0_35 Int)
(declare-const T0_36 Int)
(declare-const buf_19 Int)
(declare-const T0_37 Int)
(declare-const T0_38 Int)
(declare-const buf_20 Int)
(declare-const T0_39 Int)
(declare-const T0_40 Int)
(declare-const buf_21 Int)
(declare-const T0_41 Int)
(declare-const T0_42 Int)
(declare-const buf_22 Int)
(declare-const T0_43 Int)
(declare-const T0_44 Int)
(declare-const buf_23 Int)
(declare-const T0_45 Int)
(declare-const T0_46 Int)
(declare-const buf_24 Int)
(declare-const T0_47 Int)
(declare-const T0_48 Int)
(declare-const buf_25 Int)
(declare-const T0_49 Int)
(declare-const T0_50 Int)
(declare-const buf_26 Int)
(declare-const T0_51 Int)
(declare-const T0_52 Int)
(declare-const buf_27 Int)
(declare-const T0_53 Int)
(declare-const T0_54 Int)
(declare-const buf_28 Int)
(declare-const T0_55 Int)
(declare-const T0_56 Int)
(declare-const buf_29 Int)
(declare-const T0_57 Int)
(declare-const T0_58 Int)
(declare-const buf_30 Int)
(declare-const T0_59 Int)
(declare-const T0_60 Int)

(declare-const sendT1_0 (Send Int Int Int Int))
(assert (and (= (ep sendT1_0) 0) (= (event sendT1_0) T1_0) (= (value sendT1_0) 1)))
(declare-const sendT2_0 (Send Int Int Int Int))
(assert (and (= (ep sendT2_0) 0) (= (event sendT2_0) T2_0) (= (value sendT2_0) 2)))
(declare-const sendT3_0 (Send Int Int Int Int))
(assert (and (= (ep sendT3_0) 0) (= (event sendT3_0) T3_0) (= (value sendT3_0) 3)))
(declare-const sendT4_0 (Send Int Int Int Int))
(assert (and (= (ep sendT4_0) 0) (= (event sendT4_0) T4_0) (= (value sendT4_0) 4)))
(declare-const sendT5_0 (Send Int Int Int Int))
(assert (and (= (ep sendT5_0) 0) (= (event sendT5_0) T5_0) (= (value sendT5_0) 5)))
(declare-const sendT6_0 (Send Int Int Int Int))
(assert (and (= (ep sendT6_0) 0) (= (event sendT6_0) T6_0) (= (value sendT6_0) 6)))
(declare-const sendT7_0 (Send Int Int Int Int))
(assert (and (= (ep sendT7_0) 0) (= (event sendT7_0) T7_0) (= (value sendT7_0) 7)))
(declare-const sendT8_0 (Send Int Int Int Int))
(assert (and (= (ep sendT8_0) 0) (= (event sendT8_0) T8_0) (= (value sendT8_0) 8)))
(declare-const sendT9_0 (Send Int Int Int Int))
(assert (and (= (ep sendT9_0) 0) (= (event sendT9_0) T9_0) (= (value sendT9_0) 9)))
(declare-const sendT10_0 (Send Int Int Int Int))
(assert (and (= (ep sendT10_0) 0) (= (event sendT10_0) T10_0) (= (value sendT10_0) 10)))
(declare-const sendT11_0 (Send Int Int Int Int))
(assert (and (= (ep sendT11_0) 0) (= (event sendT11_0) T11_0) (= (value sendT11_0) 11)))
(declare-const sendT12_0 (Send Int Int Int Int))
(assert (and (= (ep sendT12_0) 0) (= (event sendT12_0) T12_0) (= (value sendT12_0) 12)))
(declare-const sendT13_0 (Send Int Int Int Int))
(assert (and (= (ep sendT13_0) 0) (= (event sendT13_0) T13_0) (= (value sendT13_0) 13)))
(declare-const sendT14_0 (Send Int Int Int Int))
(assert (and (= (ep sendT14_0) 0) (= (event sendT14_0) T14_0) (= (value sendT14_0) 14)))
(declare-const sendT15_0 (Send Int Int Int Int))
(assert (and (= (ep sendT15_0) 0) (= (event sendT15_0) T15_0) (= (value sendT15_0) 15)))
(declare-const sendT16_0 (Send Int Int Int Int))
(assert (and (= (ep sendT16_0) 0) (= (event sendT16_0) T16_0) (= (value sendT16_0) 16)))
(declare-const sendT17_0 (Send Int Int Int Int))
(assert (and (= (ep sendT17_0) 0) (= (event sendT17_0) T17_0) (= (value sendT17_0) 17)))
(declare-const sendT18_0 (Send Int Int Int Int))
(assert (and (= (ep sendT18_0) 0) (= (event sendT18_0) T18_0) (= (value sendT18_0) 18)))
(declare-const sendT19_0 (Send Int Int Int Int))
(assert (and (= (ep sendT19_0) 0) (= (event sendT19_0) T19_0) (= (value sendT19_0) 19)))
(declare-const sendT20_0 (Send Int Int Int Int))
(assert (and (= (ep sendT20_0) 0) (= (event sendT20_0) T20_0) (= (value sendT20_0) 20)))
(declare-const sendT21_0 (Send Int Int Int Int))
(assert (and (= (ep sendT21_0) 0) (= (event sendT21_0) T21_0) (= (value sendT21_0) 21)))
(declare-const sendT22_0 (Send Int Int Int Int))
(assert (and (= (ep sendT22_0) 0) (= (event sendT22_0) T22_0) (= (value sendT22_0) 22)))
(declare-const sendT23_0 (Send Int Int Int Int))
(assert (and (= (ep sendT23_0) 0) (= (event sendT23_0) T23_0) (= (value sendT23_0) 23)))
(declare-const sendT24_0 (Send Int Int Int Int))
(assert (and (= (ep sendT24_0) 0) (= (event sendT24_0) T24_0) (= (value sendT24_0) 24)))
(declare-const sendT25_0 (Send Int Int Int Int))
(assert (and (= (ep sendT25_0) 0) (= (event sendT25_0) T25_0) (= (value sendT25_0) 25)))
(declare-const sendT26_0 (Send Int Int Int Int))
(assert (and (= (ep sendT26_0) 0) (= (event sendT26_0) T26_0) (= (value sendT26_0) 26)))
(declare-const sendT27_0 (Send Int Int Int Int))
(assert (and (= (ep sendT27_0) 0) (= (event sendT27_0) T27_0) (= (value sendT27_0) 27)))
(declare-const sendT28_0 (Send Int Int Int Int))
(assert (and (= (ep sendT28_0) 0) (= (event sendT28_0) T28_0) (= (value sendT28_0) 28)))
(declare-const sendT29_0 (Send Int Int Int Int))
(assert (and (= (ep sendT29_0) 0) (= (event sendT29_0) T29_0) (= (value sendT29_0) 29)))
(declare-const recvT0_0 (Recv Int Int Int Int Int))
(assert (and (= (ep recvT0_0) 0) (= (event recvT0_0) T0_0) (= (var recvT0_0) buf_1)))
(assert (= (nearestwait recvT0_0) T0_1))
(declare-const recvT0_2 (Recv Int Int Int Int Int))
(assert (and (= (ep recvT0_2) 0) (= (event recvT0_2) T0_2) (= (var recvT0_2) buf_2)))
(assert (= (nearestwait recvT0_2) T0_3))
(declare-const recvT0_4 (Recv Int Int Int Int Int))
(assert (and (= (ep recvT0_4) 0) (= (event recvT0_4) T0_4) (= (var recvT0_4) buf_3)))
(assert (= (nearestwait recvT0_4) T0_5))
(declare-const recvT0_6 (Recv Int Int Int Int Int))
(assert (and (= (ep recvT0_6) 0) (= (event recvT0_6) T0_6) (= (var recvT0_6) buf_4)))
(assert (= (nearestwait recvT0_6) T0_7))
(declare-const recvT0_8 (Recv Int Int Int Int Int))
(assert (and (= (ep recvT0_8) 0) (= (event recvT0_8) T0_8) (= (var recvT0_8) buf_5)))
(assert (= (nearestwait recvT0_8) T0_9))
(declare-const recvT0_10 (Recv Int Int Int Int Int))
(assert (and (= (ep recvT0_10) 0) (= (event recvT0_10) T0_10) (= (var recvT0_10) buf_6)))
(assert (= (nearestwait recvT0_10) T0_11))
(declare-const recvT0_12 (Recv Int Int Int Int Int))
(assert (and (= (ep recvT0_12) 0) (= (event recvT0_12) T0_12) (= (var recvT0_12) buf_7)))
(assert (= (nearestwait recvT0_12) T0_13))
(declare-const recvT0_14 (Recv Int Int Int Int Int))
(assert (and (= (ep recvT0_14) 0) (= (event recvT0_14) T0_14) (= (var recvT0_14) buf_8)))
(assert (= (nearestwait recvT0_14) T0_15))
(declare-const recvT0_16 (Recv Int Int Int Int Int))
(assert (and (= (ep recvT0_16) 0) (= (event recvT0_16) T0_16) (= (var recvT0_16) buf_9)))
(assert (= (nearestwait recvT0_16) T0_17))
(declare-const recvT0_18 (Recv Int Int Int Int Int))
(assert (and (= (ep recvT0_18) 0) (= (event recvT0_18) T0_18) (= (var recvT0_18) buf_10)))
(assert (= (nearestwait recvT0_18) T0_19))
(declare-const recvT0_20 (Recv Int Int Int Int Int))
(assert (and (= (ep recvT0_20) 0) (= (event recvT0_20) T0_20) (= (var recvT0_20) buf_11)))
(assert (= (nearestwait recvT0_20) T0_21))
(declare-const recvT0_22 (Recv Int Int Int Int Int))
(assert (and (= (ep recvT0_22) 0) (= (event recvT0_22) T0_22) (= (var recvT0_22) buf_12)))
(assert (= (nearestwait recvT0_22) T0_23))
(declare-const recvT0_24 (Recv Int Int Int Int Int))
(assert (and (= (ep recvT0_24) 0) (= (event recvT0_24) T0_24) (= (var recvT0_24) buf_13)))
(assert (= (nearestwait recvT0_24) T0_25))
(declare-const recvT0_26 (Recv Int Int Int Int Int))
(assert (and (= (ep recvT0_26) 0) (= (event recvT0_26) T0_26) (= (var recvT0_26) buf_14)))
(assert (= (nearestwait recvT0_26) T0_27))
(declare-const recvT0_28 (Recv Int Int Int Int Int))
(assert (and (= (ep recvT0_28) 0) (= (event recvT0_28) T0_28) (= (var recvT0_28) buf_15)))
(assert (= (nearestwait recvT0_28) T0_29))
(declare-const recvT0_30 (Recv Int Int Int Int Int))
(assert (and (= (ep recvT0_30) 0) (= (event recvT0_30) T0_30) (= (var recvT0_30) buf_16)))
(assert (= (nearestwait recvT0_30) T0_31))
(declare-const recvT0_32 (Recv Int Int Int Int Int))
(assert (and (= (ep recvT0_32) 0) (= (event recvT0_32) T0_32) (= (var recvT0_32) buf_17)))
(assert (= (nearestwait recvT0_32) T0_33))
(declare-const recvT0_34 (Recv Int Int Int Int Int))
(assert (and (= (ep recvT0_34) 0) (= (event recvT0_34) T0_34) (= (var recvT0_34) buf_18)))
(assert (= (nearestwait recvT0_34) T0_35))
(declare-const recvT0_36 (Recv Int Int Int Int Int))
(assert (and (= (ep recvT0_36) 0) (= (event recvT0_36) T0_36) (= (var recvT0_36) buf_19)))
(assert (= (nearestwait recvT0_36) T0_37))
(declare-const recvT0_38 (Recv Int Int Int Int Int))
(assert (and (= (ep recvT0_38) 0) (= (event recvT0_38) T0_38) (= (var recvT0_38) buf_20)))
(assert (= (nearestwait recvT0_38) T0_39))
(declare-const recvT0_40 (Recv Int Int Int Int Int))
(assert (and (= (ep recvT0_40) 0) (= (event recvT0_40) T0_40) (= (var recvT0_40) buf_21)))
(assert (= (nearestwait recvT0_40) T0_41))
(declare-const recvT0_42 (Recv Int Int Int Int Int))
(assert (and (= (ep recvT0_42) 0) (= (event recvT0_42) T0_42) (= (var recvT0_42) buf_22)))
(assert (= (nearestwait recvT0_42) T0_43))
(declare-const recvT0_44 (Recv Int Int Int Int Int))
(assert (and (= (ep recvT0_44) 0) (= (event recvT0_44) T0_44) (= (var recvT0_44) buf_23)))
(assert (= (nearestwait recvT0_44) T0_45))
(declare-const recvT0_46 (Recv Int Int Int Int Int))
(assert (and (= (ep recvT0_46) 0) (= (event recvT0_46) T0_46) (= (var recvT0_46) buf_24)))
(assert (= (nearestwait recvT0_46) T0_47))
(declare-const recvT0_48 (Recv Int Int Int Int Int))
(assert (and (= (ep recvT0_48) 0) (= (event recvT0_48) T0_48) (= (var recvT0_48) buf_25)))
(assert (= (nearestwait recvT0_48) T0_49))
(declare-const recvT0_50 (Recv Int Int Int Int Int))
(assert (and (= (ep recvT0_50) 0) (= (event recvT0_50) T0_50) (= (var recvT0_50) buf_26)))
(assert (= (nearestwait recvT0_50) T0_51))
(declare-const recvT0_52 (Recv Int Int Int Int Int))
(assert (and (= (ep recvT0_52) 0) (= (event recvT0_52) T0_52) (= (var recvT0_52) buf_27)))
(assert (= (nearestwait recvT0_52) T0_53))
(declare-const recvT0_54 (Recv Int Int Int Int Int))
(assert (and (= (ep recvT0_54) 0) (= (event recvT0_54) T0_54) (= (var recvT0_54) buf_28)))
(assert (= (nearestwait recvT0_54) T0_55))
(declare-const recvT0_56 (Recv Int Int Int Int Int))
(assert (and (= (ep recvT0_56) 0) (= (event recvT0_56) T0_56) (= (var recvT0_56) buf_29)))
(assert (= (nearestwait recvT0_56) T0_57))
(declare-const recvT0_58 (Recv Int Int Int Int Int))
(assert (and (= (ep recvT0_58) 0) (= (event recvT0_58) T0_58) (= (var recvT0_58) buf_30)))
(assert (= (nearestwait recvT0_58) T0_59))

(assert (and
(HB T0_0 T0_1) (HB T0_0 T0_2) (HB T0_2 T0_3) (HB T0_2 T0_4) (HB T0_4 T0_5) (HB T0_4 T0_6) (HB T0_6 T0_7) (HB T0_6 T0_8) (HB T0_8 T0_9) (HB T0_8 T0_10) (HB T0_10 T0_11) (HB T0_10 T0_12) (HB T0_12 T0_13) (HB T0_12 T0_14) (HB T0_14 T0_15) (HB T0_14 T0_16) (HB T0_16 T0_17) (HB T0_16 T0_18) (HB T0_18 T0_19) (HB T0_18 T0_20) (HB T0_20 T0_21) (HB T0_20 T0_22) (HB T0_22 T0_23) (HB T0_22 T0_24) (HB T0_24 T0_25) (HB T0_24 T0_26) (HB T0_26 T0_27) (HB T0_26 T0_28) (HB T0_28 T0_29) (HB T0_28 T0_30) (HB T0_30 T0_31) (HB T0_30 T0_32) (HB T0_32 T0_33) (HB T0_32 T0_34) (HB T0_34 T0_35) (HB T0_34 T0_36) (HB T0_36 T0_37) (HB T0_36 T0_38) (HB T0_38 T0_39) (HB T0_38 T0_40) (HB T0_40 T0_41) (HB T0_40 T0_42) (HB T0_42 T0_43) (HB T0_42 T0_44) (HB T0_44 T0_45) (HB T0_44 T0_46) (HB T0_46 T0_47) (HB T0_46 T0_48) (HB T0_48 T0_49) (HB T0_48 T0_50) (HB T0_50 T0_51) (HB T0_50 T0_52) (HB T0_52 T0_53) (HB T0_52 T0_54) (HB T0_54 T0_55) (HB T0_54 T0_56) (HB T0_56 T0_57) (HB T0_56 T0_58) (HB T0_58 T0_59) ))


(assert (and
(or (MATCH recvT0_38 sendT1_0) (MATCH recvT0_38 sendT2_0) (MATCH recvT0_38 sendT3_0) (MATCH recvT0_38 sendT4_0) (MATCH recvT0_38 sendT5_0) (MATCH recvT0_38 sendT6_0) (MATCH recvT0_38 sendT7_0) (MATCH recvT0_38 sendT8_0) (MATCH recvT0_38 sendT9_0) (MATCH recvT0_38 sendT10_0) (MATCH recvT0_38 sendT11_0) (MATCH recvT0_38 sendT12_0) (MATCH recvT0_38 sendT13_0) (MATCH recvT0_38 sendT14_0) (MATCH recvT0_38 sendT15_0) (MATCH recvT0_38 sendT16_0) (MATCH recvT0_38 sendT17_0) (MATCH recvT0_38 sendT18_0) (MATCH recvT0_38 sendT19_0) (MATCH recvT0_38 sendT20_0) (MATCH recvT0_38 sendT21_0) (MATCH recvT0_38 sendT22_0) (MATCH recvT0_38 sendT23_0) (MATCH recvT0_38 sendT24_0) (MATCH recvT0_38 sendT25_0) (MATCH recvT0_38 sendT26_0) (MATCH recvT0_38 sendT27_0) (MATCH recvT0_38 sendT28_0) (MATCH recvT0_38 sendT29_0) )
(or (MATCH recvT0_36 sendT1_0) (MATCH recvT0_36 sendT2_0) (MATCH recvT0_36 sendT3_0) (MATCH recvT0_36 sendT4_0) (MATCH recvT0_36 sendT5_0) (MATCH recvT0_36 sendT6_0) (MATCH recvT0_36 sendT7_0) (MATCH recvT0_36 sendT8_0) (MATCH recvT0_36 sendT9_0) (MATCH recvT0_36 sendT10_0) (MATCH recvT0_36 sendT11_0) (MATCH recvT0_36 sendT12_0) (MATCH recvT0_36 sendT13_0) (MATCH recvT0_36 sendT14_0) (MATCH recvT0_36 sendT15_0) (MATCH recvT0_36 sendT16_0) (MATCH recvT0_36 sendT17_0) (MATCH recvT0_36 sendT18_0) (MATCH recvT0_36 sendT19_0) (MATCH recvT0_36 sendT20_0) (MATCH recvT0_36 sendT21_0) (MATCH recvT0_36 sendT22_0) (MATCH recvT0_36 sendT23_0) (MATCH recvT0_36 sendT24_0) (MATCH recvT0_36 sendT25_0) (MATCH recvT0_36 sendT26_0) (MATCH recvT0_36 sendT27_0) (MATCH recvT0_36 sendT28_0) (MATCH recvT0_36 sendT29_0) )
(or (MATCH recvT0_34 sendT1_0) (MATCH recvT0_34 sendT2_0) (MATCH recvT0_34 sendT3_0) (MATCH recvT0_34 sendT4_0) (MATCH recvT0_34 sendT5_0) (MATCH recvT0_34 sendT6_0) (MATCH recvT0_34 sendT7_0) (MATCH recvT0_34 sendT8_0) (MATCH recvT0_34 sendT9_0) (MATCH recvT0_34 sendT10_0) (MATCH recvT0_34 sendT11_0) (MATCH recvT0_34 sendT12_0) (MATCH recvT0_34 sendT13_0) (MATCH recvT0_34 sendT14_0) (MATCH recvT0_34 sendT15_0) (MATCH recvT0_34 sendT16_0) (MATCH recvT0_34 sendT17_0) (MATCH recvT0_34 sendT18_0) (MATCH recvT0_34 sendT19_0) (MATCH recvT0_34 sendT20_0) (MATCH recvT0_34 sendT21_0) (MATCH recvT0_34 sendT22_0) (MATCH recvT0_34 sendT23_0) (MATCH recvT0_34 sendT24_0) (MATCH recvT0_34 sendT25_0) (MATCH recvT0_34 sendT26_0) (MATCH recvT0_34 sendT27_0) (MATCH recvT0_34 sendT28_0) (MATCH recvT0_34 sendT29_0) )
(or (MATCH recvT0_32 sendT1_0) (MATCH recvT0_32 sendT2_0) (MATCH recvT0_32 sendT3_0) (MATCH recvT0_32 sendT4_0) (MATCH recvT0_32 sendT5_0) (MATCH recvT0_32 sendT6_0) (MATCH recvT0_32 sendT7_0) (MATCH recvT0_32 sendT8_0) (MATCH recvT0_32 sendT9_0) (MATCH recvT0_32 sendT10_0) (MATCH recvT0_32 sendT11_0) (MATCH recvT0_32 sendT12_0) (MATCH recvT0_32 sendT13_0) (MATCH recvT0_32 sendT14_0) (MATCH recvT0_32 sendT15_0) (MATCH recvT0_32 sendT16_0) (MATCH recvT0_32 sendT17_0) (MATCH recvT0_32 sendT18_0) (MATCH recvT0_32 sendT19_0) (MATCH recvT0_32 sendT20_0) (MATCH recvT0_32 sendT21_0) (MATCH recvT0_32 sendT22_0) (MATCH recvT0_32 sendT23_0) (MATCH recvT0_32 sendT24_0) (MATCH recvT0_32 sendT25_0) (MATCH recvT0_32 sendT26_0) (MATCH recvT0_32 sendT27_0) (MATCH recvT0_32 sendT28_0) (MATCH recvT0_32 sendT29_0) )
(or (MATCH recvT0_30 sendT1_0) (MATCH recvT0_30 sendT2_0) (MATCH recvT0_30 sendT3_0) (MATCH recvT0_30 sendT4_0) (MATCH recvT0_30 sendT5_0) (MATCH recvT0_30 sendT6_0) (MATCH recvT0_30 sendT7_0) (MATCH recvT0_30 sendT8_0) (MATCH recvT0_30 sendT9_0) (MATCH recvT0_30 sendT10_0) (MATCH recvT0_30 sendT11_0) (MATCH recvT0_30 sendT12_0) (MATCH recvT0_30 sendT13_0) (MATCH recvT0_30 sendT14_0) (MATCH recvT0_30 sendT15_0) (MATCH recvT0_30 sendT16_0) (MATCH recvT0_30 sendT17_0) (MATCH recvT0_30 sendT18_0) (MATCH recvT0_30 sendT19_0) (MATCH recvT0_30 sendT20_0) (MATCH recvT0_30 sendT21_0) (MATCH recvT0_30 sendT22_0) (MATCH recvT0_30 sendT23_0) (MATCH recvT0_30 sendT24_0) (MATCH recvT0_30 sendT25_0) (MATCH recvT0_30 sendT26_0) (MATCH recvT0_30 sendT27_0) (MATCH recvT0_30 sendT28_0) (MATCH recvT0_30 sendT29_0) )
(or (MATCH recvT0_18 sendT1_0) (MATCH recvT0_18 sendT2_0) (MATCH recvT0_18 sendT3_0) (MATCH recvT0_18 sendT4_0) (MATCH recvT0_18 sendT5_0) (MATCH recvT0_18 sendT6_0) (MATCH recvT0_18 sendT7_0) (MATCH recvT0_18 sendT8_0) (MATCH recvT0_18 sendT9_0) (MATCH recvT0_18 sendT10_0) (MATCH recvT0_18 sendT11_0) (MATCH recvT0_18 sendT12_0) (MATCH recvT0_18 sendT13_0) (MATCH recvT0_18 sendT14_0) (MATCH recvT0_18 sendT15_0) (MATCH recvT0_18 sendT16_0) (MATCH recvT0_18 sendT17_0) (MATCH recvT0_18 sendT18_0) (MATCH recvT0_18 sendT19_0) (MATCH recvT0_18 sendT20_0) (MATCH recvT0_18 sendT21_0) (MATCH recvT0_18 sendT22_0) (MATCH recvT0_18 sendT23_0) (MATCH recvT0_18 sendT24_0) (MATCH recvT0_18 sendT25_0) (MATCH recvT0_18 sendT26_0) (MATCH recvT0_18 sendT27_0) (MATCH recvT0_18 sendT28_0) (MATCH recvT0_18 sendT29_0) )
(or (MATCH recvT0_48 sendT1_0) (MATCH recvT0_48 sendT2_0) (MATCH recvT0_48 sendT3_0) (MATCH recvT0_48 sendT4_0) (MATCH recvT0_48 sendT5_0) (MATCH recvT0_48 sendT6_0) (MATCH recvT0_48 sendT7_0) (MATCH recvT0_48 sendT8_0) (MATCH recvT0_48 sendT9_0) (MATCH recvT0_48 sendT10_0) (MATCH recvT0_48 sendT11_0) (MATCH recvT0_48 sendT12_0) (MATCH recvT0_48 sendT13_0) (MATCH recvT0_48 sendT14_0) (MATCH recvT0_48 sendT15_0) (MATCH recvT0_48 sendT16_0) (MATCH recvT0_48 sendT17_0) (MATCH recvT0_48 sendT18_0) (MATCH recvT0_48 sendT19_0) (MATCH recvT0_48 sendT20_0) (MATCH recvT0_48 sendT21_0) (MATCH recvT0_48 sendT22_0) (MATCH recvT0_48 sendT23_0) (MATCH recvT0_48 sendT24_0) (MATCH recvT0_48 sendT25_0) (MATCH recvT0_48 sendT26_0) (MATCH recvT0_48 sendT27_0) (MATCH recvT0_48 sendT28_0) (MATCH recvT0_48 sendT29_0) )
(or (MATCH recvT0_16 sendT1_0) (MATCH recvT0_16 sendT2_0) (MATCH recvT0_16 sendT3_0) (MATCH recvT0_16 sendT4_0) (MATCH recvT0_16 sendT5_0) (MATCH recvT0_16 sendT6_0) (MATCH recvT0_16 sendT7_0) (MATCH recvT0_16 sendT8_0) (MATCH recvT0_16 sendT9_0) (MATCH recvT0_16 sendT10_0) (MATCH recvT0_16 sendT11_0) (MATCH recvT0_16 sendT12_0) (MATCH recvT0_16 sendT13_0) (MATCH recvT0_16 sendT14_0) (MATCH recvT0_16 sendT15_0) (MATCH recvT0_16 sendT16_0) (MATCH recvT0_16 sendT17_0) (MATCH recvT0_16 sendT18_0) (MATCH recvT0_16 sendT19_0) (MATCH recvT0_16 sendT20_0) (MATCH recvT0_16 sendT21_0) (MATCH recvT0_16 sendT22_0) (MATCH recvT0_16 sendT23_0) (MATCH recvT0_16 sendT24_0) (MATCH recvT0_16 sendT25_0) (MATCH recvT0_16 sendT26_0) (MATCH recvT0_16 sendT27_0) (MATCH recvT0_16 sendT28_0) (MATCH recvT0_16 sendT29_0) )
(or (MATCH recvT0_46 sendT1_0) (MATCH recvT0_46 sendT2_0) (MATCH recvT0_46 sendT3_0) (MATCH recvT0_46 sendT4_0) (MATCH recvT0_46 sendT5_0) (MATCH recvT0_46 sendT6_0) (MATCH recvT0_46 sendT7_0) (MATCH recvT0_46 sendT8_0) (MATCH recvT0_46 sendT9_0) (MATCH recvT0_46 sendT10_0) (MATCH recvT0_46 sendT11_0) (MATCH recvT0_46 sendT12_0) (MATCH recvT0_46 sendT13_0) (MATCH recvT0_46 sendT14_0) (MATCH recvT0_46 sendT15_0) (MATCH recvT0_46 sendT16_0) (MATCH recvT0_46 sendT17_0) (MATCH recvT0_46 sendT18_0) (MATCH recvT0_46 sendT19_0) (MATCH recvT0_46 sendT20_0) (MATCH recvT0_46 sendT21_0) (MATCH recvT0_46 sendT22_0) (MATCH recvT0_46 sendT23_0) (MATCH recvT0_46 sendT24_0) (MATCH recvT0_46 sendT25_0) (MATCH recvT0_46 sendT26_0) (MATCH recvT0_46 sendT27_0) (MATCH recvT0_46 sendT28_0) (MATCH recvT0_46 sendT29_0) )
(or (MATCH recvT0_14 sendT1_0) (MATCH recvT0_14 sendT2_0) (MATCH recvT0_14 sendT3_0) (MATCH recvT0_14 sendT4_0) (MATCH recvT0_14 sendT5_0) (MATCH recvT0_14 sendT6_0) (MATCH recvT0_14 sendT7_0) (MATCH recvT0_14 sendT8_0) (MATCH recvT0_14 sendT9_0) (MATCH recvT0_14 sendT10_0) (MATCH recvT0_14 sendT11_0) (MATCH recvT0_14 sendT12_0) (MATCH recvT0_14 sendT13_0) (MATCH recvT0_14 sendT14_0) (MATCH recvT0_14 sendT15_0) (MATCH recvT0_14 sendT16_0) (MATCH recvT0_14 sendT17_0) (MATCH recvT0_14 sendT18_0) (MATCH recvT0_14 sendT19_0) (MATCH recvT0_14 sendT20_0) (MATCH recvT0_14 sendT21_0) (MATCH recvT0_14 sendT22_0) (MATCH recvT0_14 sendT23_0) (MATCH recvT0_14 sendT24_0) (MATCH recvT0_14 sendT25_0) (MATCH recvT0_14 sendT26_0) (MATCH recvT0_14 sendT27_0) (MATCH recvT0_14 sendT28_0) (MATCH recvT0_14 sendT29_0) )
(or (MATCH recvT0_44 sendT1_0) (MATCH recvT0_44 sendT2_0) (MATCH recvT0_44 sendT3_0) (MATCH recvT0_44 sendT4_0) (MATCH recvT0_44 sendT5_0) (MATCH recvT0_44 sendT6_0) (MATCH recvT0_44 sendT7_0) (MATCH recvT0_44 sendT8_0) (MATCH recvT0_44 sendT9_0) (MATCH recvT0_44 sendT10_0) (MATCH recvT0_44 sendT11_0) (MATCH recvT0_44 sendT12_0) (MATCH recvT0_44 sendT13_0) (MATCH recvT0_44 sendT14_0) (MATCH recvT0_44 sendT15_0) (MATCH recvT0_44 sendT16_0) (MATCH recvT0_44 sendT17_0) (MATCH recvT0_44 sendT18_0) (MATCH recvT0_44 sendT19_0) (MATCH recvT0_44 sendT20_0) (MATCH recvT0_44 sendT21_0) (MATCH recvT0_44 sendT22_0) (MATCH recvT0_44 sendT23_0) (MATCH recvT0_44 sendT24_0) (MATCH recvT0_44 sendT25_0) (MATCH recvT0_44 sendT26_0) (MATCH recvT0_44 sendT27_0) (MATCH recvT0_44 sendT28_0) (MATCH recvT0_44 sendT29_0) )
(or (MATCH recvT0_12 sendT1_0) (MATCH recvT0_12 sendT2_0) (MATCH recvT0_12 sendT3_0) (MATCH recvT0_12 sendT4_0) (MATCH recvT0_12 sendT5_0) (MATCH recvT0_12 sendT6_0) (MATCH recvT0_12 sendT7_0) (MATCH recvT0_12 sendT8_0) (MATCH recvT0_12 sendT9_0) (MATCH recvT0_12 sendT10_0) (MATCH recvT0_12 sendT11_0) (MATCH recvT0_12 sendT12_0) (MATCH recvT0_12 sendT13_0) (MATCH recvT0_12 sendT14_0) (MATCH recvT0_12 sendT15_0) (MATCH recvT0_12 sendT16_0) (MATCH recvT0_12 sendT17_0) (MATCH recvT0_12 sendT18_0) (MATCH recvT0_12 sendT19_0) (MATCH recvT0_12 sendT20_0) (MATCH recvT0_12 sendT21_0) (MATCH recvT0_12 sendT22_0) (MATCH recvT0_12 sendT23_0) (MATCH recvT0_12 sendT24_0) (MATCH recvT0_12 sendT25_0) (MATCH recvT0_12 sendT26_0) (MATCH recvT0_12 sendT27_0) (MATCH recvT0_12 sendT28_0) (MATCH recvT0_12 sendT29_0) )
(or (MATCH recvT0_8 sendT1_0) (MATCH recvT0_8 sendT2_0) (MATCH recvT0_8 sendT3_0) (MATCH recvT0_8 sendT4_0) (MATCH recvT0_8 sendT5_0) (MATCH recvT0_8 sendT6_0) (MATCH recvT0_8 sendT7_0) (MATCH recvT0_8 sendT8_0) (MATCH recvT0_8 sendT9_0) (MATCH recvT0_8 sendT10_0) (MATCH recvT0_8 sendT11_0) (MATCH recvT0_8 sendT12_0) (MATCH recvT0_8 sendT13_0) (MATCH recvT0_8 sendT14_0) (MATCH recvT0_8 sendT15_0) (MATCH recvT0_8 sendT16_0) (MATCH recvT0_8 sendT17_0) (MATCH recvT0_8 sendT18_0) (MATCH recvT0_8 sendT19_0) (MATCH recvT0_8 sendT20_0) (MATCH recvT0_8 sendT21_0) (MATCH recvT0_8 sendT22_0) (MATCH recvT0_8 sendT23_0) (MATCH recvT0_8 sendT24_0) (MATCH recvT0_8 sendT25_0) (MATCH recvT0_8 sendT26_0) (MATCH recvT0_8 sendT27_0) (MATCH recvT0_8 sendT28_0) (MATCH recvT0_8 sendT29_0) )
(or (MATCH recvT0_42 sendT1_0) (MATCH recvT0_42 sendT2_0) (MATCH recvT0_42 sendT3_0) (MATCH recvT0_42 sendT4_0) (MATCH recvT0_42 sendT5_0) (MATCH recvT0_42 sendT6_0) (MATCH recvT0_42 sendT7_0) (MATCH recvT0_42 sendT8_0) (MATCH recvT0_42 sendT9_0) (MATCH recvT0_42 sendT10_0) (MATCH recvT0_42 sendT11_0) (MATCH recvT0_42 sendT12_0) (MATCH recvT0_42 sendT13_0) (MATCH recvT0_42 sendT14_0) (MATCH recvT0_42 sendT15_0) (MATCH recvT0_42 sendT16_0) (MATCH recvT0_42 sendT17_0) (MATCH recvT0_42 sendT18_0) (MATCH recvT0_42 sendT19_0) (MATCH recvT0_42 sendT20_0) (MATCH recvT0_42 sendT21_0) (MATCH recvT0_42 sendT22_0) (MATCH recvT0_42 sendT23_0) (MATCH recvT0_42 sendT24_0) (MATCH recvT0_42 sendT25_0) (MATCH recvT0_42 sendT26_0) (MATCH recvT0_42 sendT27_0) (MATCH recvT0_42 sendT28_0) (MATCH recvT0_42 sendT29_0) )
(or (MATCH recvT0_10 sendT1_0) (MATCH recvT0_10 sendT2_0) (MATCH recvT0_10 sendT3_0) (MATCH recvT0_10 sendT4_0) (MATCH recvT0_10 sendT5_0) (MATCH recvT0_10 sendT6_0) (MATCH recvT0_10 sendT7_0) (MATCH recvT0_10 sendT8_0) (MATCH recvT0_10 sendT9_0) (MATCH recvT0_10 sendT10_0) (MATCH recvT0_10 sendT11_0) (MATCH recvT0_10 sendT12_0) (MATCH recvT0_10 sendT13_0) (MATCH recvT0_10 sendT14_0) (MATCH recvT0_10 sendT15_0) (MATCH recvT0_10 sendT16_0) (MATCH recvT0_10 sendT17_0) (MATCH recvT0_10 sendT18_0) (MATCH recvT0_10 sendT19_0) (MATCH recvT0_10 sendT20_0) (MATCH recvT0_10 sendT21_0) (MATCH recvT0_10 sendT22_0) (MATCH recvT0_10 sendT23_0) (MATCH recvT0_10 sendT24_0) (MATCH recvT0_10 sendT25_0) (MATCH recvT0_10 sendT26_0) (MATCH recvT0_10 sendT27_0) (MATCH recvT0_10 sendT28_0) (MATCH recvT0_10 sendT29_0) )
(or (MATCH recvT0_6 sendT1_0) (MATCH recvT0_6 sendT2_0) (MATCH recvT0_6 sendT3_0) (MATCH recvT0_6 sendT4_0) (MATCH recvT0_6 sendT5_0) (MATCH recvT0_6 sendT6_0) (MATCH recvT0_6 sendT7_0) (MATCH recvT0_6 sendT8_0) (MATCH recvT0_6 sendT9_0) (MATCH recvT0_6 sendT10_0) (MATCH recvT0_6 sendT11_0) (MATCH recvT0_6 sendT12_0) (MATCH recvT0_6 sendT13_0) (MATCH recvT0_6 sendT14_0) (MATCH recvT0_6 sendT15_0) (MATCH recvT0_6 sendT16_0) (MATCH recvT0_6 sendT17_0) (MATCH recvT0_6 sendT18_0) (MATCH recvT0_6 sendT19_0) (MATCH recvT0_6 sendT20_0) (MATCH recvT0_6 sendT21_0) (MATCH recvT0_6 sendT22_0) (MATCH recvT0_6 sendT23_0) (MATCH recvT0_6 sendT24_0) (MATCH recvT0_6 sendT25_0) (MATCH recvT0_6 sendT26_0) (MATCH recvT0_6 sendT27_0) (MATCH recvT0_6 sendT28_0) (MATCH recvT0_6 sendT29_0) )
(or (MATCH recvT0_40 sendT1_0) (MATCH recvT0_40 sendT2_0) (MATCH recvT0_40 sendT3_0) (MATCH recvT0_40 sendT4_0) (MATCH recvT0_40 sendT5_0) (MATCH recvT0_40 sendT6_0) (MATCH recvT0_40 sendT7_0) (MATCH recvT0_40 sendT8_0) (MATCH recvT0_40 sendT9_0) (MATCH recvT0_40 sendT10_0) (MATCH recvT0_40 sendT11_0) (MATCH recvT0_40 sendT12_0) (MATCH recvT0_40 sendT13_0) (MATCH recvT0_40 sendT14_0) (MATCH recvT0_40 sendT15_0) (MATCH recvT0_40 sendT16_0) (MATCH recvT0_40 sendT17_0) (MATCH recvT0_40 sendT18_0) (MATCH recvT0_40 sendT19_0) (MATCH recvT0_40 sendT20_0) (MATCH recvT0_40 sendT21_0) (MATCH recvT0_40 sendT22_0) (MATCH recvT0_40 sendT23_0) (MATCH recvT0_40 sendT24_0) (MATCH recvT0_40 sendT25_0) (MATCH recvT0_40 sendT26_0) (MATCH recvT0_40 sendT27_0) (MATCH recvT0_40 sendT28_0) (MATCH recvT0_40 sendT29_0) )
(or (MATCH recvT0_4 sendT1_0) (MATCH recvT0_4 sendT2_0) (MATCH recvT0_4 sendT3_0) (MATCH recvT0_4 sendT4_0) (MATCH recvT0_4 sendT5_0) (MATCH recvT0_4 sendT6_0) (MATCH recvT0_4 sendT7_0) (MATCH recvT0_4 sendT8_0) (MATCH recvT0_4 sendT9_0) (MATCH recvT0_4 sendT10_0) (MATCH recvT0_4 sendT11_0) (MATCH recvT0_4 sendT12_0) (MATCH recvT0_4 sendT13_0) (MATCH recvT0_4 sendT14_0) (MATCH recvT0_4 sendT15_0) (MATCH recvT0_4 sendT16_0) (MATCH recvT0_4 sendT17_0) (MATCH recvT0_4 sendT18_0) (MATCH recvT0_4 sendT19_0) (MATCH recvT0_4 sendT20_0) (MATCH recvT0_4 sendT21_0) (MATCH recvT0_4 sendT22_0) (MATCH recvT0_4 sendT23_0) (MATCH recvT0_4 sendT24_0) (MATCH recvT0_4 sendT25_0) (MATCH recvT0_4 sendT26_0) (MATCH recvT0_4 sendT27_0) (MATCH recvT0_4 sendT28_0) (MATCH recvT0_4 sendT29_0) )
(or (MATCH recvT0_2 sendT1_0) (MATCH recvT0_2 sendT2_0) (MATCH recvT0_2 sendT3_0) (MATCH recvT0_2 sendT4_0) (MATCH recvT0_2 sendT5_0) (MATCH recvT0_2 sendT6_0) (MATCH recvT0_2 sendT7_0) (MATCH recvT0_2 sendT8_0) (MATCH recvT0_2 sendT9_0) (MATCH recvT0_2 sendT10_0) (MATCH recvT0_2 sendT11_0) (MATCH recvT0_2 sendT12_0) (MATCH recvT0_2 sendT13_0) (MATCH recvT0_2 sendT14_0) (MATCH recvT0_2 sendT15_0) (MATCH recvT0_2 sendT16_0) (MATCH recvT0_2 sendT17_0) (MATCH recvT0_2 sendT18_0) (MATCH recvT0_2 sendT19_0) (MATCH recvT0_2 sendT20_0) (MATCH recvT0_2 sendT21_0) (MATCH recvT0_2 sendT22_0) (MATCH recvT0_2 sendT23_0) (MATCH recvT0_2 sendT24_0) (MATCH recvT0_2 sendT25_0) (MATCH recvT0_2 sendT26_0) (MATCH recvT0_2 sendT27_0) (MATCH recvT0_2 sendT28_0) (MATCH recvT0_2 sendT29_0) )
(or (MATCH recvT0_0 sendT1_0) (MATCH recvT0_0 sendT2_0) (MATCH recvT0_0 sendT3_0) (MATCH recvT0_0 sendT4_0) (MATCH recvT0_0 sendT5_0) (MATCH recvT0_0 sendT6_0) (MATCH recvT0_0 sendT7_0) (MATCH recvT0_0 sendT8_0) (MATCH recvT0_0 sendT9_0) (MATCH recvT0_0 sendT10_0) (MATCH recvT0_0 sendT11_0) (MATCH recvT0_0 sendT12_0) (MATCH recvT0_0 sendT13_0) (MATCH recvT0_0 sendT14_0) (MATCH recvT0_0 sendT15_0) (MATCH recvT0_0 sendT16_0) (MATCH recvT0_0 sendT17_0) (MATCH recvT0_0 sendT18_0) (MATCH recvT0_0 sendT19_0) (MATCH recvT0_0 sendT20_0) (MATCH recvT0_0 sendT21_0) (MATCH recvT0_0 sendT22_0) (MATCH recvT0_0 sendT23_0) (MATCH recvT0_0 sendT24_0) (MATCH recvT0_0 sendT25_0) (MATCH recvT0_0 sendT26_0) (MATCH recvT0_0 sendT27_0) (MATCH recvT0_0 sendT28_0) (MATCH recvT0_0 sendT29_0) )
(or (MATCH recvT0_28 sendT1_0) (MATCH recvT0_28 sendT2_0) (MATCH recvT0_28 sendT3_0) (MATCH recvT0_28 sendT4_0) (MATCH recvT0_28 sendT5_0) (MATCH recvT0_28 sendT6_0) (MATCH recvT0_28 sendT7_0) (MATCH recvT0_28 sendT8_0) (MATCH recvT0_28 sendT9_0) (MATCH recvT0_28 sendT10_0) (MATCH recvT0_28 sendT11_0) (MATCH recvT0_28 sendT12_0) (MATCH recvT0_28 sendT13_0) (MATCH recvT0_28 sendT14_0) (MATCH recvT0_28 sendT15_0) (MATCH recvT0_28 sendT16_0) (MATCH recvT0_28 sendT17_0) (MATCH recvT0_28 sendT18_0) (MATCH recvT0_28 sendT19_0) (MATCH recvT0_28 sendT20_0) (MATCH recvT0_28 sendT21_0) (MATCH recvT0_28 sendT22_0) (MATCH recvT0_28 sendT23_0) (MATCH recvT0_28 sendT24_0) (MATCH recvT0_28 sendT25_0) (MATCH recvT0_28 sendT26_0) (MATCH recvT0_28 sendT27_0) (MATCH recvT0_28 sendT28_0) (MATCH recvT0_28 sendT29_0) )
(or (MATCH recvT0_26 sendT1_0) (MATCH recvT0_26 sendT2_0) (MATCH recvT0_26 sendT3_0) (MATCH recvT0_26 sendT4_0) (MATCH recvT0_26 sendT5_0) (MATCH recvT0_26 sendT6_0) (MATCH recvT0_26 sendT7_0) (MATCH recvT0_26 sendT8_0) (MATCH recvT0_26 sendT9_0) (MATCH recvT0_26 sendT10_0) (MATCH recvT0_26 sendT11_0) (MATCH recvT0_26 sendT12_0) (MATCH recvT0_26 sendT13_0) (MATCH recvT0_26 sendT14_0) (MATCH recvT0_26 sendT15_0) (MATCH recvT0_26 sendT16_0) (MATCH recvT0_26 sendT17_0) (MATCH recvT0_26 sendT18_0) (MATCH recvT0_26 sendT19_0) (MATCH recvT0_26 sendT20_0) (MATCH recvT0_26 sendT21_0) (MATCH recvT0_26 sendT22_0) (MATCH recvT0_26 sendT23_0) (MATCH recvT0_26 sendT24_0) (MATCH recvT0_26 sendT25_0) (MATCH recvT0_26 sendT26_0) (MATCH recvT0_26 sendT27_0) (MATCH recvT0_26 sendT28_0) (MATCH recvT0_26 sendT29_0) )
(or (MATCH recvT0_56 sendT1_0) (MATCH recvT0_56 sendT2_0) (MATCH recvT0_56 sendT3_0) (MATCH recvT0_56 sendT4_0) (MATCH recvT0_56 sendT5_0) (MATCH recvT0_56 sendT6_0) (MATCH recvT0_56 sendT7_0) (MATCH recvT0_56 sendT8_0) (MATCH recvT0_56 sendT9_0) (MATCH recvT0_56 sendT10_0) (MATCH recvT0_56 sendT11_0) (MATCH recvT0_56 sendT12_0) (MATCH recvT0_56 sendT13_0) (MATCH recvT0_56 sendT14_0) (MATCH recvT0_56 sendT15_0) (MATCH recvT0_56 sendT16_0) (MATCH recvT0_56 sendT17_0) (MATCH recvT0_56 sendT18_0) (MATCH recvT0_56 sendT19_0) (MATCH recvT0_56 sendT20_0) (MATCH recvT0_56 sendT21_0) (MATCH recvT0_56 sendT22_0) (MATCH recvT0_56 sendT23_0) (MATCH recvT0_56 sendT24_0) (MATCH recvT0_56 sendT25_0) (MATCH recvT0_56 sendT26_0) (MATCH recvT0_56 sendT27_0) (MATCH recvT0_56 sendT28_0) (MATCH recvT0_56 sendT29_0) )
(or (MATCH recvT0_24 sendT1_0) (MATCH recvT0_24 sendT2_0) (MATCH recvT0_24 sendT3_0) (MATCH recvT0_24 sendT4_0) (MATCH recvT0_24 sendT5_0) (MATCH recvT0_24 sendT6_0) (MATCH recvT0_24 sendT7_0) (MATCH recvT0_24 sendT8_0) (MATCH recvT0_24 sendT9_0) (MATCH recvT0_24 sendT10_0) (MATCH recvT0_24 sendT11_0) (MATCH recvT0_24 sendT12_0) (MATCH recvT0_24 sendT13_0) (MATCH recvT0_24 sendT14_0) (MATCH recvT0_24 sendT15_0) (MATCH recvT0_24 sendT16_0) (MATCH recvT0_24 sendT17_0) (MATCH recvT0_24 sendT18_0) (MATCH recvT0_24 sendT19_0) (MATCH recvT0_24 sendT20_0) (MATCH recvT0_24 sendT21_0) (MATCH recvT0_24 sendT22_0) (MATCH recvT0_24 sendT23_0) (MATCH recvT0_24 sendT24_0) (MATCH recvT0_24 sendT25_0) (MATCH recvT0_24 sendT26_0) (MATCH recvT0_24 sendT27_0) (MATCH recvT0_24 sendT28_0) (MATCH recvT0_24 sendT29_0) )
(or (MATCH recvT0_54 sendT1_0) (MATCH recvT0_54 sendT2_0) (MATCH recvT0_54 sendT3_0) (MATCH recvT0_54 sendT4_0) (MATCH recvT0_54 sendT5_0) (MATCH recvT0_54 sendT6_0) (MATCH recvT0_54 sendT7_0) (MATCH recvT0_54 sendT8_0) (MATCH recvT0_54 sendT9_0) (MATCH recvT0_54 sendT10_0) (MATCH recvT0_54 sendT11_0) (MATCH recvT0_54 sendT12_0) (MATCH recvT0_54 sendT13_0) (MATCH recvT0_54 sendT14_0) (MATCH recvT0_54 sendT15_0) (MATCH recvT0_54 sendT16_0) (MATCH recvT0_54 sendT17_0) (MATCH recvT0_54 sendT18_0) (MATCH recvT0_54 sendT19_0) (MATCH recvT0_54 sendT20_0) (MATCH recvT0_54 sendT21_0) (MATCH recvT0_54 sendT22_0) (MATCH recvT0_54 sendT23_0) (MATCH recvT0_54 sendT24_0) (MATCH recvT0_54 sendT25_0) (MATCH recvT0_54 sendT26_0) (MATCH recvT0_54 sendT27_0) (MATCH recvT0_54 sendT28_0) (MATCH recvT0_54 sendT29_0) )
(or (MATCH recvT0_22 sendT1_0) (MATCH recvT0_22 sendT2_0) (MATCH recvT0_22 sendT3_0) (MATCH recvT0_22 sendT4_0) (MATCH recvT0_22 sendT5_0) (MATCH recvT0_22 sendT6_0) (MATCH recvT0_22 sendT7_0) (MATCH recvT0_22 sendT8_0) (MATCH recvT0_22 sendT9_0) (MATCH recvT0_22 sendT10_0) (MATCH recvT0_22 sendT11_0) (MATCH recvT0_22 sendT12_0) (MATCH recvT0_22 sendT13_0) (MATCH recvT0_22 sendT14_0) (MATCH recvT0_22 sendT15_0) (MATCH recvT0_22 sendT16_0) (MATCH recvT0_22 sendT17_0) (MATCH recvT0_22 sendT18_0) (MATCH recvT0_22 sendT19_0) (MATCH recvT0_22 sendT20_0) (MATCH recvT0_22 sendT21_0) (MATCH recvT0_22 sendT22_0) (MATCH recvT0_22 sendT23_0) (MATCH recvT0_22 sendT24_0) (MATCH recvT0_22 sendT25_0) (MATCH recvT0_22 sendT26_0) (MATCH recvT0_22 sendT27_0) (MATCH recvT0_22 sendT28_0) (MATCH recvT0_22 sendT29_0) )
(or (MATCH recvT0_52 sendT1_0) (MATCH recvT0_52 sendT2_0) (MATCH recvT0_52 sendT3_0) (MATCH recvT0_52 sendT4_0) (MATCH recvT0_52 sendT5_0) (MATCH recvT0_52 sendT6_0) (MATCH recvT0_52 sendT7_0) (MATCH recvT0_52 sendT8_0) (MATCH recvT0_52 sendT9_0) (MATCH recvT0_52 sendT10_0) (MATCH recvT0_52 sendT11_0) (MATCH recvT0_52 sendT12_0) (MATCH recvT0_52 sendT13_0) (MATCH recvT0_52 sendT14_0) (MATCH recvT0_52 sendT15_0) (MATCH recvT0_52 sendT16_0) (MATCH recvT0_52 sendT17_0) (MATCH recvT0_52 sendT18_0) (MATCH recvT0_52 sendT19_0) (MATCH recvT0_52 sendT20_0) (MATCH recvT0_52 sendT21_0) (MATCH recvT0_52 sendT22_0) (MATCH recvT0_52 sendT23_0) (MATCH recvT0_52 sendT24_0) (MATCH recvT0_52 sendT25_0) (MATCH recvT0_52 sendT26_0) (MATCH recvT0_52 sendT27_0) (MATCH recvT0_52 sendT28_0) (MATCH recvT0_52 sendT29_0) )
(or (MATCH recvT0_20 sendT1_0) (MATCH recvT0_20 sendT2_0) (MATCH recvT0_20 sendT3_0) (MATCH recvT0_20 sendT4_0) (MATCH recvT0_20 sendT5_0) (MATCH recvT0_20 sendT6_0) (MATCH recvT0_20 sendT7_0) (MATCH recvT0_20 sendT8_0) (MATCH recvT0_20 sendT9_0) (MATCH recvT0_20 sendT10_0) (MATCH recvT0_20 sendT11_0) (MATCH recvT0_20 sendT12_0) (MATCH recvT0_20 sendT13_0) (MATCH recvT0_20 sendT14_0) (MATCH recvT0_20 sendT15_0) (MATCH recvT0_20 sendT16_0) (MATCH recvT0_20 sendT17_0) (MATCH recvT0_20 sendT18_0) (MATCH recvT0_20 sendT19_0) (MATCH recvT0_20 sendT20_0) (MATCH recvT0_20 sendT21_0) (MATCH recvT0_20 sendT22_0) (MATCH recvT0_20 sendT23_0) (MATCH recvT0_20 sendT24_0) (MATCH recvT0_20 sendT25_0) (MATCH recvT0_20 sendT26_0) (MATCH recvT0_20 sendT27_0) (MATCH recvT0_20 sendT28_0) (MATCH recvT0_20 sendT29_0) )
(or (MATCH recvT0_50 sendT1_0) (MATCH recvT0_50 sendT2_0) (MATCH recvT0_50 sendT3_0) (MATCH recvT0_50 sendT4_0) (MATCH recvT0_50 sendT5_0) (MATCH recvT0_50 sendT6_0) (MATCH recvT0_50 sendT7_0) (MATCH recvT0_50 sendT8_0) (MATCH recvT0_50 sendT9_0) (MATCH recvT0_50 sendT10_0) (MATCH recvT0_50 sendT11_0) (MATCH recvT0_50 sendT12_0) (MATCH recvT0_50 sendT13_0) (MATCH recvT0_50 sendT14_0) (MATCH recvT0_50 sendT15_0) (MATCH recvT0_50 sendT16_0) (MATCH recvT0_50 sendT17_0) (MATCH recvT0_50 sendT18_0) (MATCH recvT0_50 sendT19_0) (MATCH recvT0_50 sendT20_0) (MATCH recvT0_50 sendT21_0) (MATCH recvT0_50 sendT22_0) (MATCH recvT0_50 sendT23_0) (MATCH recvT0_50 sendT24_0) (MATCH recvT0_50 sendT25_0) (MATCH recvT0_50 sendT26_0) (MATCH recvT0_50 sendT27_0) (MATCH recvT0_50 sendT28_0) (MATCH recvT0_50 sendT29_0) )
))

(assert (= buf_30 30))

(check-sat)
